(set-logic QF_S)
(declare-fun T_10a () Bool)
(declare-fun T_10b () Bool)
(declare-fun T_8d () Bool)
(declare-fun T_8e () Bool)
(declare-fun T_SELECT_13 () Bool)
(declare-fun I0_211 () Int)
(declare-fun I0_215 () Int)
(declare-fun I1_211 () Int)
(declare-fun I1_215 () Int)
(declare-fun I2_211 () Int)
(declare-fun I2_215 () Int)
(declare-fun PCTEMP_LHS_55 () Int)
(declare-fun T_92 () Int)
(declare-fun NEW_DGNode_723 () String)
(declare-fun NEW_DGNode_724 () String)
(declare-fun NEW_DGNode_726 () String)
(declare-fun NEW_DGNode_727 () String)
(declare-fun PCTEMP_LHS_59 () String)
(assert (= PCTEMP_LHS_59 NEW_DGNode_727))
(assert (= NEW_DGNode_727 NEW_DGNode_726))
(assert (= NEW_DGNode_727 NEW_DGNode_724))
(assert (= NEW_DGNode_724 NEW_DGNode_723))
(assert (not (str.in.re NEW_DGNode_724 (str.to.re ""))))
(assert (not (str.in.re NEW_DGNode_723 (str.to.re "+"))))
(assert (not (str.in.re NEW_DGNode_726 (str.to.re "%"))))
(assert (= T_SELECT_13 (not (= PCTEMP_LHS_55 (- 1)))))
(assert T_8e)
(assert (= T_8e (not T_8d)))
(assert (= T_8d (= PCTEMP_LHS_55 (- 1))))
(assert (= I0_211 (- PCTEMP_LHS_55 0)))
(assert (>= PCTEMP_LHS_55 0))
(assert (= I2_211 I1_211))
(assert (<= PCTEMP_LHS_55 I1_211))
(assert (= T_92 (+ PCTEMP_LHS_55 1)))
(assert (>= T_92 0))
(assert (>= I2_215 T_92))
(assert (= I2_215 I1_215))
(assert (<= I2_215 I1_215))
(assert (= I0_215 (- I2_215 T_92)))
(assert (= I0_215 (str.len PCTEMP_LHS_59))) ; len 0
(assert T_10a)
(assert T_10b)
(assert (= T_10b (not T_10a)))
(check-sat)
